NAME: tsp10_19
COMMENT: 10-tsp problem (Padberg/Rinaldi)
TYPE: TSP
DIMENSION: 10
EDGE_WEIGHT_TYPE : EUC_2D
NODE_COORD_SECTION
1 33 29
2 10 37
3 7 30
4 15 21
5 23 9
6 15 38
7 26 28
8 7 8
9 13 38
10 40 17
